; Benchmark for LTL-sketching problem
(set-logic QF_UF)
(set-info :status unknown)
(declare-fun z_0_0_0 () Bool)
(declare-fun z_0_1_0 () Bool)
(declare-fun z_0_2_0 () Bool)
(declare-fun z_0_3_0 () Bool)
(declare-fun z_0_4_0 () Bool)
(declare-fun z_0_5_0 () Bool)
(declare-fun z_0_6_0 () Bool)
(declare-fun z_0_7_0 () Bool)
(declare-fun z_0_8_0 () Bool)
(declare-fun z_0_9_0 () Bool)
(declare-fun z_0_10_0 () Bool)
(declare-fun z_0_11_0 () Bool)
(declare-fun z_0_12_0 () Bool)
(declare-fun z_0_13_0 () Bool)
(declare-fun z_0_14_0 () Bool)
(declare-fun z_0_15_0 () Bool)
(declare-fun z_0_16_0 () Bool)
(declare-fun z_0_17_0 () Bool)
(declare-fun z_0_18_0 () Bool)
(declare-fun z_0_19_0 () Bool)
(declare-fun z_2_0_1 () Bool)
(declare-fun z_2_0_0 () Bool)
(declare-fun z_0_0_1 () Bool)
(declare-fun z_2_1_6 () Bool)
(declare-fun z_2_1_5 () Bool)
(declare-fun z_2_1_4 () Bool)
(declare-fun z_2_1_3 () Bool)
(declare-fun z_2_1_2 () Bool)
(declare-fun z_2_1_1 () Bool)
(declare-fun z_2_1_0 () Bool)
(declare-fun z_0_1_1 () Bool)
(declare-fun z_0_1_2 () Bool)
(declare-fun z_0_1_3 () Bool)
(declare-fun z_0_1_4 () Bool)
(declare-fun z_0_1_5 () Bool)
(declare-fun z_0_1_6 () Bool)
(declare-fun z_2_2_6 () Bool)
(declare-fun z_2_2_5 () Bool)
(declare-fun z_2_2_4 () Bool)
(declare-fun z_2_2_3 () Bool)
(declare-fun z_2_2_2 () Bool)
(declare-fun z_2_2_1 () Bool)
(declare-fun z_2_2_0 () Bool)
(declare-fun z_0_2_1 () Bool)
(declare-fun z_0_2_2 () Bool)
(declare-fun z_0_2_3 () Bool)
(declare-fun z_0_2_4 () Bool)
(declare-fun z_0_2_5 () Bool)
(declare-fun z_0_2_6 () Bool)
(declare-fun z_2_3_2 () Bool)
(declare-fun z_2_3_1 () Bool)
(declare-fun z_2_3_0 () Bool)
(declare-fun z_0_3_1 () Bool)
(declare-fun z_0_3_2 () Bool)
(declare-fun z_2_4_4 () Bool)
(declare-fun z_2_4_3 () Bool)
(declare-fun z_2_4_2 () Bool)
(declare-fun z_2_4_1 () Bool)
(declare-fun z_2_4_0 () Bool)
(declare-fun z_0_4_1 () Bool)
(declare-fun z_0_4_2 () Bool)
(declare-fun z_0_4_3 () Bool)
(declare-fun z_0_4_4 () Bool)
(declare-fun z_2_5_5 () Bool)
(declare-fun z_2_5_4 () Bool)
(declare-fun z_2_5_3 () Bool)
(declare-fun z_2_5_2 () Bool)
(declare-fun z_2_5_1 () Bool)
(declare-fun z_2_5_0 () Bool)
(declare-fun z_0_5_1 () Bool)
(declare-fun z_0_5_2 () Bool)
(declare-fun z_0_5_3 () Bool)
(declare-fun z_0_5_4 () Bool)
(declare-fun z_0_5_5 () Bool)
(declare-fun z_2_6_4 () Bool)
(declare-fun z_2_6_3 () Bool)
(declare-fun z_2_6_2 () Bool)
(declare-fun z_2_6_1 () Bool)
(declare-fun z_2_6_0 () Bool)
(declare-fun z_0_6_1 () Bool)
(declare-fun z_0_6_2 () Bool)
(declare-fun z_0_6_3 () Bool)
(declare-fun z_0_6_4 () Bool)
(declare-fun z_2_7_4 () Bool)
(declare-fun z_2_7_3 () Bool)
(declare-fun z_2_7_2 () Bool)
(declare-fun z_2_7_1 () Bool)
(declare-fun z_2_7_0 () Bool)
(declare-fun z_0_7_1 () Bool)
(declare-fun z_0_7_2 () Bool)
(declare-fun z_0_7_3 () Bool)
(declare-fun z_0_7_4 () Bool)
(declare-fun z_2_8_6 () Bool)
(declare-fun z_2_8_5 () Bool)
(declare-fun z_2_8_4 () Bool)
(declare-fun z_2_8_3 () Bool)
(declare-fun z_2_8_2 () Bool)
(declare-fun z_2_8_1 () Bool)
(declare-fun z_2_8_0 () Bool)
(declare-fun z_0_8_1 () Bool)
(declare-fun z_0_8_2 () Bool)
(declare-fun z_0_8_3 () Bool)
(declare-fun z_0_8_4 () Bool)
(declare-fun z_0_8_5 () Bool)
(declare-fun z_0_8_6 () Bool)
(declare-fun z_2_9_4 () Bool)
(declare-fun z_2_9_3 () Bool)
(declare-fun z_2_9_2 () Bool)
(declare-fun z_2_9_1 () Bool)
(declare-fun z_2_9_0 () Bool)
(declare-fun z_0_9_1 () Bool)
(declare-fun z_0_9_2 () Bool)
(declare-fun z_0_9_3 () Bool)
(declare-fun z_0_9_4 () Bool)
(declare-fun z_2_10_0 () Bool)
(declare-fun z_2_11_0 () Bool)
(declare-fun z_2_12_0 () Bool)
(declare-fun z_2_13_0 () Bool)
(declare-fun z_2_14_0 () Bool)
(declare-fun z_2_15_0 () Bool)
(declare-fun z_2_16_0 () Bool)
(declare-fun z_2_17_0 () Bool)
(declare-fun z_2_18_0 () Bool)
(declare-fun z_2_19_0 () Bool)
(declare-fun x_2_p () Bool)
(declare-fun x_2_-> () Bool)
(declare-fun x_2_U () Bool)
(declare-fun x_2_v () Bool)
(declare-fun x_2_& () Bool)
(declare-fun x_2_X () Bool)
(declare-fun x_2_! () Bool)
(declare-fun x_2_F () Bool)
(declare-fun x_2_G () Bool)
(assert
 (= z_0_0_0 true))
(assert
 (= z_0_1_0 true))
(assert
 (= z_0_2_0 true))
(assert
 (= z_0_3_0 true))
(assert
 (= z_0_4_0 true))
(assert
 (= z_0_5_0 true))
(assert
 (= z_0_6_0 true))
(assert
 (= z_0_7_0 true))
(assert
 (= z_0_8_0 true))
(assert
 (= z_0_9_0 true))
(assert
 (= z_0_10_0 false))
(assert
 (= z_0_11_0 false))
(assert
 (= z_0_12_0 false))
(assert
 (= z_0_13_0 false))
(assert
 (= z_0_14_0 false))
(assert
 (= z_0_15_0 false))
(assert
 (= z_0_16_0 false))
(assert
 (= z_0_17_0 false))
(assert
 (= z_0_18_0 false))
(assert
 (= z_0_19_0 false))
(assert
 (let (($x1084 (or z_2_0_0 z_2_0_1)))
 (= z_0_0_0 $x1084)))
(assert
 (let (($x1084 (or z_2_0_0 z_2_0_1)))
 (= z_0_0_1 $x1084)))
(assert
 (let (($x1094 (or z_2_1_0 z_2_1_1 z_2_1_2 z_2_1_3 z_2_1_4 z_2_1_5 z_2_1_6)))
 (= z_0_1_0 $x1094)))
(assert
 (= z_0_1_1 (or z_2_1_1 z_2_1_2 z_2_1_3 z_2_1_4 z_2_1_5 z_2_1_6)))
(assert
 (= z_0_1_2 (or z_2_1_2 z_2_1_3 z_2_1_4 z_2_1_5 z_2_1_6)))
(assert
 (let (($x1100 (or z_2_1_3 z_2_1_4 z_2_1_5 z_2_1_6)))
 (= z_0_1_3 $x1100)))
(assert
 (let (($x1100 (or z_2_1_3 z_2_1_4 z_2_1_5 z_2_1_6)))
 (= z_0_1_4 $x1100)))
(assert
 (let (($x1100 (or z_2_1_3 z_2_1_4 z_2_1_5 z_2_1_6)))
 (= z_0_1_5 $x1100)))
(assert
 (let (($x1100 (or z_2_1_3 z_2_1_4 z_2_1_5 z_2_1_6)))
 (= z_0_1_6 $x1100)))
(assert
 (let (($x1112 (or z_2_2_0 z_2_2_1 z_2_2_2 z_2_2_3 z_2_2_4 z_2_2_5 z_2_2_6)))
 (= z_0_2_0 $x1112)))
(assert
 (= z_0_2_1 (or z_2_2_1 z_2_2_2 z_2_2_3 z_2_2_4 z_2_2_5 z_2_2_6)))
(assert
 (= z_0_2_2 (or z_2_2_2 z_2_2_3 z_2_2_4 z_2_2_5 z_2_2_6)))
(assert
 (let (($x1118 (or z_2_2_3 z_2_2_4 z_2_2_5 z_2_2_6)))
 (= z_0_2_3 $x1118)))
(assert
 (let (($x1118 (or z_2_2_3 z_2_2_4 z_2_2_5 z_2_2_6)))
 (= z_0_2_4 $x1118)))
(assert
 (let (($x1118 (or z_2_2_3 z_2_2_4 z_2_2_5 z_2_2_6)))
 (= z_0_2_5 $x1118)))
(assert
 (let (($x1118 (or z_2_2_3 z_2_2_4 z_2_2_5 z_2_2_6)))
 (= z_0_2_6 $x1118)))
(assert
 (= z_0_3_0 (or z_2_3_0 z_2_3_1 z_2_3_2)))
(assert
 (= z_0_3_1 (or z_2_3_1 z_2_3_2)))
(assert
 (= z_0_3_2 (or z_2_3_2)))
(assert
 (= z_0_4_0 (or z_2_4_0 z_2_4_1 z_2_4_2 z_2_4_3 z_2_4_4)))
(assert
 (= z_0_4_1 (or z_2_4_1 z_2_4_2 z_2_4_3 z_2_4_4)))
(assert
 (let (($x1142 (or z_2_4_2 z_2_4_3 z_2_4_4)))
 (= z_0_4_2 $x1142)))
(assert
 (let (($x1142 (or z_2_4_2 z_2_4_3 z_2_4_4)))
 (= z_0_4_3 $x1142)))
(assert
 (let (($x1142 (or z_2_4_2 z_2_4_3 z_2_4_4)))
 (= z_0_4_4 $x1142)))
(assert
 (= z_0_5_0 (or z_2_5_0 z_2_5_1 z_2_5_2 z_2_5_3 z_2_5_4 z_2_5_5)))
(assert
 (= z_0_5_1 (or z_2_5_1 z_2_5_2 z_2_5_3 z_2_5_4 z_2_5_5)))
(assert
 (= z_0_5_2 (or z_2_5_2 z_2_5_3 z_2_5_4 z_2_5_5)))
(assert
 (= z_0_5_3 (or z_2_5_3 z_2_5_4 z_2_5_5)))
(assert
 (let (($x1160 (or z_2_5_4 z_2_5_5)))
 (= z_0_5_4 $x1160)))
(assert
 (let (($x1160 (or z_2_5_4 z_2_5_5)))
 (= z_0_5_5 $x1160)))
(assert
 (= z_0_6_0 (or z_2_6_0 z_2_6_1 z_2_6_2 z_2_6_3 z_2_6_4)))
(assert
 (let (($x1170 (or z_2_6_1 z_2_6_2 z_2_6_3 z_2_6_4)))
 (= z_0_6_1 $x1170)))
(assert
 (let (($x1170 (or z_2_6_1 z_2_6_2 z_2_6_3 z_2_6_4)))
 (= z_0_6_2 $x1170)))
(assert
 (let (($x1170 (or z_2_6_1 z_2_6_2 z_2_6_3 z_2_6_4)))
 (= z_0_6_3 $x1170)))
(assert
 (let (($x1170 (or z_2_6_1 z_2_6_2 z_2_6_3 z_2_6_4)))
 (= z_0_6_4 $x1170)))
(assert
 (= z_0_7_0 (or z_2_7_0 z_2_7_1 z_2_7_2 z_2_7_3 z_2_7_4)))
(assert
 (= z_0_7_1 (or z_2_7_1 z_2_7_2 z_2_7_3 z_2_7_4)))
(assert
 (let (($x1184 (or z_2_7_2 z_2_7_3 z_2_7_4)))
 (= z_0_7_2 $x1184)))
(assert
 (let (($x1184 (or z_2_7_2 z_2_7_3 z_2_7_4)))
 (= z_0_7_3 $x1184)))
(assert
 (let (($x1184 (or z_2_7_2 z_2_7_3 z_2_7_4)))
 (= z_0_7_4 $x1184)))
(assert
 (let (($x1195 (or z_2_8_0 z_2_8_1 z_2_8_2 z_2_8_3 z_2_8_4 z_2_8_5 z_2_8_6)))
 (= z_0_8_0 $x1195)))
(assert
 (= z_0_8_1 (or z_2_8_1 z_2_8_2 z_2_8_3 z_2_8_4 z_2_8_5 z_2_8_6)))
(assert
 (= z_0_8_2 (or z_2_8_2 z_2_8_3 z_2_8_4 z_2_8_5 z_2_8_6)))
(assert
 (= z_0_8_3 (or z_2_8_3 z_2_8_4 z_2_8_5 z_2_8_6)))
(assert
 (let (($x1203 (or z_2_8_4 z_2_8_5 z_2_8_6)))
 (= z_0_8_4 $x1203)))
(assert
 (let (($x1203 (or z_2_8_4 z_2_8_5 z_2_8_6)))
 (= z_0_8_5 $x1203)))
(assert
 (let (($x1203 (or z_2_8_4 z_2_8_5 z_2_8_6)))
 (= z_0_8_6 $x1203)))
(assert
 (= z_0_9_0 (or z_2_9_0 z_2_9_1 z_2_9_2 z_2_9_3 z_2_9_4)))
(assert
 (= z_0_9_1 (or z_2_9_1 z_2_9_2 z_2_9_3 z_2_9_4)))
(assert
 (= z_0_9_2 (or z_2_9_2 z_2_9_3 z_2_9_4)))
(assert
 (let (($x1218 (or z_2_9_3 z_2_9_4)))
 (= z_0_9_3 $x1218)))
(assert
 (let (($x1218 (or z_2_9_3 z_2_9_4)))
 (= z_0_9_4 $x1218)))
(assert
 (= z_0_10_0 (or z_2_10_0)))
(assert
 (= z_0_11_0 (or z_2_11_0)))
(assert
 (= z_0_12_0 (or z_2_12_0)))
(assert
 (= z_0_13_0 (or z_2_13_0)))
(assert
 (= z_0_14_0 (or z_2_14_0)))
(assert
 (= z_0_15_0 (or z_2_15_0)))
(assert
 (= z_0_16_0 (or z_2_16_0)))
(assert
 (= z_0_17_0 (or z_2_17_0)))
(assert
 (= z_0_18_0 (or z_2_18_0)))
(assert
 (= z_0_19_0 (or z_2_19_0)))
(assert
 (and true true))
(assert
 (=> x_2_p z_2_0_0))
(assert
 (let (($x1284 (not z_2_0_1)))
 (=> x_2_p $x1284)))
(assert
 (let (($x1287 (not z_2_1_0)))
 (=> x_2_p $x1287)))
(assert
 (let (($x1290 (not z_2_1_1)))
 (=> x_2_p $x1290)))
(assert
 (=> x_2_p z_2_1_2))
(assert
 (let (($x1295 (not z_2_1_3)))
 (=> x_2_p $x1295)))
(assert
 (=> x_2_p z_2_1_4))
(assert
 (let (($x1300 (not z_2_1_5)))
 (=> x_2_p $x1300)))
(assert
 (let (($x1303 (not z_2_1_6)))
 (=> x_2_p $x1303)))
(assert
 (=> x_2_p z_2_2_0))
(assert
 (=> x_2_p z_2_2_1))
(assert
 (let (($x1310 (not z_2_2_2)))
 (=> x_2_p $x1310)))
(assert
 (=> x_2_p z_2_2_3))
(assert
 (=> x_2_p z_2_2_4))
(assert
 (let (($x1317 (not z_2_2_5)))
 (=> x_2_p $x1317)))
(assert
 (=> x_2_p z_2_2_6))
(assert
 (=> x_2_p z_2_3_0))
(assert
 (=> x_2_p z_2_3_1))
(assert
 (let (($x1326 (not z_2_3_2)))
 (=> x_2_p $x1326)))
(assert
 (=> x_2_p z_2_4_0))
(assert
 (let (($x1331 (not z_2_4_1)))
 (=> x_2_p $x1331)))
(assert
 (let (($x1334 (not z_2_4_2)))
 (=> x_2_p $x1334)))
(assert
 (let (($x1337 (not z_2_4_3)))
 (=> x_2_p $x1337)))
(assert
 (=> x_2_p z_2_4_4))
(assert
 (let (($x1342 (not z_2_5_0)))
 (=> x_2_p $x1342)))
(assert
 (let (($x1345 (not z_2_5_1)))
 (=> x_2_p $x1345)))
(assert
 (let (($x1348 (not z_2_5_2)))
 (=> x_2_p $x1348)))
(assert
 (=> x_2_p z_2_5_3))
(assert
 (=> x_2_p z_2_5_4))
(assert
 (let (($x1355 (not z_2_5_5)))
 (=> x_2_p $x1355)))
(assert
 (let (($x1358 (not z_2_6_0)))
 (=> x_2_p $x1358)))
(assert
 (=> x_2_p z_2_6_1))
(assert
 (=> x_2_p z_2_6_2))
(assert
 (let (($x1365 (not z_2_6_3)))
 (=> x_2_p $x1365)))
(assert
 (=> x_2_p z_2_6_4))
(assert
 (=> x_2_p z_2_7_0))
(assert
 (let (($x1372 (not z_2_7_1)))
 (=> x_2_p $x1372)))
(assert
 (let (($x1375 (not z_2_7_2)))
 (=> x_2_p $x1375)))
(assert
 (let (($x1378 (not z_2_7_3)))
 (=> x_2_p $x1378)))
(assert
 (=> x_2_p z_2_7_4))
(assert
 (let (($x1383 (not z_2_8_0)))
 (=> x_2_p $x1383)))
(assert
 (let (($x1386 (not z_2_8_1)))
 (=> x_2_p $x1386)))
(assert
 (let (($x1389 (not z_2_8_2)))
 (=> x_2_p $x1389)))
(assert
 (=> x_2_p z_2_8_3))
(assert
 (=> x_2_p z_2_8_4))
(assert
 (let (($x1396 (not z_2_8_5)))
 (=> x_2_p $x1396)))
(assert
 (let (($x1399 (not z_2_8_6)))
 (=> x_2_p $x1399)))
(assert
 (=> x_2_p z_2_9_0))
(assert
 (let (($x1404 (not z_2_9_1)))
 (=> x_2_p $x1404)))
(assert
 (let (($x1407 (not z_2_9_2)))
 (=> x_2_p $x1407)))
(assert
 (let (($x1410 (not z_2_9_3)))
 (=> x_2_p $x1410)))
(assert
 (=> x_2_p z_2_9_4))
(assert
 (let (($x1415 (not z_2_10_0)))
 (=> x_2_p $x1415)))
(assert
 (let (($x1418 (not z_2_11_0)))
 (=> x_2_p $x1418)))
(assert
 (let (($x1421 (not z_2_12_0)))
 (=> x_2_p $x1421)))
(assert
 (let (($x1424 (not z_2_13_0)))
 (=> x_2_p $x1424)))
(assert
 (let (($x1427 (not z_2_14_0)))
 (=> x_2_p $x1427)))
(assert
 (let (($x1430 (not z_2_15_0)))
 (=> x_2_p $x1430)))
(assert
 (let (($x1433 (not z_2_16_0)))
 (=> x_2_p $x1433)))
(assert
 (let (($x1436 (not z_2_17_0)))
 (=> x_2_p $x1436)))
(assert
 (let (($x1439 (not z_2_18_0)))
 (=> x_2_p $x1439)))
(assert
 (let (($x1442 (not z_2_19_0)))
 (=> x_2_p $x1442)))
(assert
 (or x_2_p))
(assert
 (let (($x1279 (not x_2_->)))
 (let (($x1277 (not x_2_U)))
 (let (($x1275 (not x_2_v)))
 (let (($x1273 (not x_2_&)))
 (let (($x1271 (not x_2_X)))
 (let (($x1269 (not x_2_!)))
 (let (($x1267 (not x_2_F)))
 (let (($x1265 (not x_2_G)))
 (and $x1265 $x1267 $x1269 $x1271 $x1273 $x1275 $x1277 $x1279))))))))))
(check-sat)

